g3 2 1 0	# problem inst_sans_ref
 62 208 1 0 52	# vars, constraints, objectives, ranges, eqns
 52 1	# nonlinear constraints, objectives
 0 0	# network constraints: nonlinear, linear
 10 10 10	# nonlinear vars in constraints, objectives, both
 0 0 0 1	# linear network variables; functions; arith, flags
 0 0 0 0 0	# discrete variables: binary, integer, nonlinear (b,c,o)
 500 62	# nonzeros in Jacobian, gradients
 0 0	# max name lengths: constraints, variables
 0 0 0 0 0	# common exprs: b,c,o,c1,o1
b
0 0 1
0 0 1
0 0 1
0 0 1
0 0 1
0 0 1
0 0 1
0 0 1
0 0 1
0 0 1
0 0 1
0 0 1
0 0 1
0 0 1
0 0 1
0 0 1
0 0 1
0 0 1
0 0 1
0 0 1
0 0 1
0 0 1
0 0 1
0 0 1
0 0 1
0 0 1
0 0 1
0 0 1
0 0 1
0 0 1
0 0 1
0 0 1
0 0 1
0 0 1
0 0 1
0 0 1
0 0 1
0 0 1
0 0 1
0 0 1
0 0 1
0 0 1
0 0 1
0 0 1
0 0 1
0 0 1
0 0 1
0 0 1
0 0 1
0 0 1
0 0 1
0 0 1
0 0 1
0 0 1
0 0 1
0 0 1
0 0 1
0 0 1
0 0 1
0 0 1
0 0 1
0 0 1
r
4 0
4 0
4 0
4 0
4 0
4 0
4 0
4 0
4 0
4 0
4 0
4 0
4 0
4 0
4 0
4 0
4 0
4 0
4 0
4 0
4 0
4 0
4 0
4 0
4 0
4 0
4 0
4 0
4 0
4 0
4 0
4 0
4 0
4 0
4 0
4 0
4 0
4 0
4 0
4 0
4 0
4 0
4 0
4 0
4 0
4 0
4 0
4 0
4 0
4 0
4 0
4 0
1 0
1 0
1 0
1 0
1 0
1 0
1 0
1 0
1 0
1 0
1 0
1 0
1 0
1 0
1 0
1 0
1 0
1 0
1 0
1 0
1 0
1 0
1 0
1 0
1 0
1 0
1 0
1 0
1 0
1 0
1 0
1 0
1 0
1 0
1 0
1 0
1 0
1 0
1 0
1 0
1 0
1 0
1 0
1 0
1 0
1 0
1 0
1 0
1 0
1 0
1 0
1 0
1 0
1 0
1 0
1 0
1 0
1 0
1 0
1 0
1 0
1 0
1 0
1 0
1 0
1 0
1 0
1 0
1 0
1 0
1 0
1 0
1 0
1 0
1 0
1 0
1 0
1 0
1 0
1 0
1 0
1 0
1 0
1 0
1 0
1 0
1 0
1 0
1 0
1 0
1 0
1 0
1 0
1 0
2 -1
2 -1
2 -1
2 -1
2 -1
2 -1
2 -1
2 -1
2 -1
2 -1
2 -1
2 -1
2 -1
2 -1
2 -1
2 -1
2 -1
2 -1
2 -1
2 -1
2 -1
2 -1
2 -1
2 -1
2 -1
2 -1
2 -1
2 -1
2 -1
2 -1
2 -1
2 -1
2 -1
2 -1
2 -1
2 -1
2 -1
2 -1
2 -1
2 -1
2 -1
2 -1
2 -1
2 -1
2 -1
2 -1
2 -1
2 -1
2 -1
2 -1
2 -1
2 -1
2 0
2 0
2 0
2 0
2 0
2 0
2 0
2 0
2 0
2 0
C0
o16
o2
v0
v0
C1
o16
o2
v0
v2
C2
o16
o2
v0
v3
C3
o16
o2
v0
v4
C4
o16
o2
v0
v5
C5
o16
o2
v0
v6
C6
o16
o2
v0
v7
C7
o16
o2
v0
v8
C8
o16
o2
v0
v9
C9
o16
o2
v1
v1
C10
o16
o2
v1
v2
C11
o16
o2
v1
v3
C12
o16
o2
v1
v4
C13
o16
o2
v1
v5
C14
o16
o2
v1
v6
C15
o16
o2
v1
v7
C16
o16
o2
v1
v9
C17
o16
o2
v2
v2
C18
o16
o2
v2
v3
C19
o16
o2
v2
v4
C20
o16
o2
v2
v5
C21
o16
o2
v2
v6
C22
o16
o2
v2
v7
C23
o16
o2
v2
v8
C24
o16
o2
v2
v9
C25
o16
o2
v3
v3
C26
o16
o2
v3
v4
C27
o16
o2
v3
v5
C28
o16
o2
v3
v6
C29
o16
o2
v3
v7
C30
o16
o2
v3
v8
C31
o16
o2
v3
v9
C32
o16
o2
v4
v4
C33
o16
o2
v4
v6
C34
o16
o2
v4
v7
C35
o16
o2
v4
v8
C36
o16
o2
v4
v9
C37
o16
o2
v5
v5
C38
o16
o2
v5
v6
C39
o16
o2
v5
v7
C40
o16
o2
v5
v8
C41
o16
o2
v5
v9
C42
o16
o2
v6
v6
C43
o16
o2
v6
v7
C44
o16
o2
v6
v8
C45
o16
o2
v6
v9
C46
o16
o2
v7
v7
C47
o16
o2
v7
v8
C48
o16
o2
v7
v9
C49
o16
o2
v8
v8
C50
o16
o2
v8
v9
C51
o16
o2
v9
v9
C52
n0
C53
n0
C54
n0
C55
n0
C56
n0
C57
n0
C58
n0
C59
n0
C60
n0
C61
n0
C62
n0
C63
n0
C64
n0
C65
n0
C66
n0
C67
n0
C68
n0
C69
n0
C70
n0
C71
n0
C72
n0
C73
n0
C74
n0
C75
n0
C76
n0
C77
n0
C78
n0
C79
n0
C80
n0
C81
n0
C82
n0
C83
n0
C84
n0
C85
n0
C86
n0
C87
n0
C88
n0
C89
n0
C90
n0
C91
n0
C92
n0
C93
n0
C94
n0
C95
n0
C96
n0
C97
n0
C98
n0
C99
n0
C100
n0
C101
n0
C102
n0
C103
n0
C104
n0
C105
n0
C106
n0
C107
n0
C108
n0
C109
n0
C110
n0
C111
n0
C112
n0
C113
n0
C114
n0
C115
n0
C116
n0
C117
n0
C118
n0
C119
n0
C120
n0
C121
n0
C122
n0
C123
n0
C124
n0
C125
n0
C126
n0
C127
n0
C128
n0
C129
n0
C130
n0
C131
n0
C132
n0
C133
n0
C134
n0
C135
n0
C136
n0
C137
n0
C138
n0
C139
n0
C140
n0
C141
n0
C142
n0
C143
n0
C144
n0
C145
n0
C146
n0
C147
n0
C148
n0
C149
n0
C150
n0
C151
n0
C152
n0
C153
n0
C154
n0
C155
n0
C156
n0
C157
n0
C158
n0
C159
n0
C160
n0
C161
n0
C162
n0
C163
n0
C164
n0
C165
n0
C166
n0
C167
n0
C168
n0
C169
n0
C170
n0
C171
n0
C172
n0
C173
n0
C174
n0
C175
n0
C176
n0
C177
n0
C178
n0
C179
n0
C180
n0
C181
n0
C182
n0
C183
n0
C184
n0
C185
n0
C186
n0
C187
n0
C188
n0
C189
n0
C190
n0
C191
n0
C192
n0
C193
n0
C194
n0
C195
n0
C196
n0
C197
n0
C198
n0
C199
n0
C200
n0
C201
n0
C202
n0
C203
n0
C204
n0
C205
n0
C206
n0
C207
n0
O0 0
o54
98
o2
o2
n1.781745
v0
v0
o2
o2
n-0.029362
v0
v2
o2
o2
n-0.110078
v0
v3
o2
o2
n-0.137687
v0
v4
o2
o2
n-0.435661
v0
v5
o2
o2
n-0.295321
v0
v6
o2
o2
n0.244134
v0
v7
o2
o2
n0.941168
v0
v8
o2
o2
n-0.636509
v0
v9
o2
o2
n0.821006
v1
v1
o2
o2
n-0.010942
v1
v2
o2
o2
n-0.051692
v1
v3
o2
o2
n-0.075292
v1
v4
o2
o2
n0.615564
v1
v5
o2
o2
n0.197896
v1
v6
o2
o2
n-0.123105
v1
v7
o2
o2
n0.245
v1
v8
o2
o2
n-0.485715
v1
v9
o2
o2
n-0.029362
v2
v0
o2
o2
n-0.010942
v2
v1
o2
o2
n2.00741
v2
v2
o2
o2
n0.02274
v2
v3
o2
o2
n0.027593
v2
v4
o2
o2
n0.72525
v2
v5
o2
o2
n0.317815
v2
v6
o2
o2
n0.25571
v2
v7
o2
o2
n0.516108
v2
v8
o2
o2
n0.581621
v2
v9
o2
o2
n-0.110078
v3
v0
o2
o2
n-0.051692
v3
v1
o2
o2
n0.02274
v3
v2
o2
o2
n1.801967
v3
v3
o2
o2
n0.016221
v3
v4
o2
o2
n0.557069
v3
v5
o2
o2
n-0.638554
v3
v6
o2
o2
n-0.53877
v3
v7
o2
o2
n-0.349664
v3
v8
o2
o2
n-0.024439
v3
v9
o2
o2
n-0.137687
v4
v0
o2
o2
n-0.075292
v4
v1
o2
o2
n0.027593
v4
v2
o2
o2
n0.016221
v4
v3
o2
o2
n1.484674
v4
v4
o2
o2
n0.385
v4
v5
o2
o2
n-0.78762
v4
v6
o2
o2
n-0.49396
v4
v7
o2
o2
n-0.153114
v4
v8
o2
o2
n0.316465
v4
v9
o2
o2
n-0.435661
v5
v0
o2
o2
n0.615564
v5
v1
o2
o2
n0.72525
v5
v2
o2
o2
n0.557069
v5
v3
o2
o2
n0.385
v5
v4
o2
o2
n1.466429
v5
v5
o2
o2
n-0.01783
v5
v6
o2
o2
n-0.013136
v5
v7
o2
o2
n-0.096981
v5
v8
o2
o2
n0.108472
v5
v9
o2
o2
n-0.295321
v6
v0
o2
o2
n0.197896
v6
v1
o2
o2
n0.317815
v6
v2
o2
o2
n-0.638554
v6
v3
o2
o2
n-0.78762
v6
v4
o2
o2
n-0.01783
v6
v5
o2
o2
n2.120381
v6
v6
o2
o2
n0.014198
v6
v7
o2
o2
n0.037087
v6
v8
o2
o2
n-0.045457
v6
v9
o2
o2
n0.244134
v7
v0
o2
o2
n-0.123105
v7
v1
o2
o2
n0.25571
v7
v2
o2
o2
n-0.53877
v7
v3
o2
o2
n-0.49396
v7
v4
o2
o2
n-0.013136
v7
v5
o2
o2
n0.014198
v7
v6
o2
o2
n1.423222
v7
v7
o2
o2
n0.091998
v7
v8
o2
o2
n-0.109854
v7
v9
o2
o2
n0.941168
v8
v0
o2
o2
n0.245
v8
v1
o2
o2
n0.516108
v8
v2
o2
o2
n-0.349664
v8
v3
o2
o2
n-0.153114
v8
v4
o2
o2
n-0.096981
v8
v5
o2
o2
n0.037087
v8
v6
o2
o2
n0.091998
v8
v7
o2
o2
n1.28102
v8
v8
o2
o2
n-0.05193
v8
v9
o2
o2
n-0.636509
v9
v0
o2
o2
n-0.485715
v9
v1
o2
o2
n0.581621
v9
v2
o2
o2
n-0.024439
v9
v3
o2
o2
n0.316465
v9
v4
o2
o2
n0.108472
v9
v5
o2
o2
n-0.045457
v9
v6
o2
o2
n-0.109854
v9
v7
o2
o2
n-0.05193
v9
v8
o2
o2
n1.091553
v9
v9
k61
28
53
84
115
143
171
202
233
261
292
296
300
304
308
312
316
320
324
328
332
336
340
344
348
352
356
360
364
368
372
376
380
384
388
392
396
400
404
408
412
416
420
424
428
432
436
440
444
448
452
456
460
464
468
472
476
480
484
488
492
496
J0 2
0 0
10 1
J1 3
0 0
2 0
11 1
J2 3
0 0
3 0
12 1
J3 3
0 0
4 0
13 1
J4 3
0 0
5 0
14 1
J5 3
0 0
6 0
15 1
J6 3
0 0
7 0
16 1
J7 3
0 0
8 0
17 1
J8 3
0 0
9 0
18 1
J9 2
1 0
19 1
J10 3
1 0
2 0
20 1
J11 3
1 0
3 0
21 1
J12 3
1 0
4 0
22 1
J13 3
1 0
5 0
23 1
J14 3
1 0
6 0
24 1
J15 3
1 0
7 0
25 1
J16 3
1 0
9 0
26 1
J17 2
2 0
27 1
J18 3
2 0
3 0
28 1
J19 3
2 0
4 0
29 1
J20 3
2 0
5 0
30 1
J21 3
2 0
6 0
31 1
J22 3
2 0
7 0
32 1
J23 3
2 0
8 0
33 1
J24 3
2 0
9 0
34 1
J25 2
3 0
35 1
J26 3
3 0
4 0
36 1
J27 3
3 0
5 0
37 1
J28 3
3 0
6 0
38 1
J29 3
3 0
7 0
39 1
J30 3
3 0
8 0
40 1
J31 3
3 0
9 0
41 1
J32 2
4 0
42 1
J33 3
4 0
6 0
43 1
J34 3
4 0
7 0
44 1
J35 3
4 0
8 0
45 1
J36 3
4 0
9 0
46 1
J37 2
5 0
47 1
J38 3
5 0
6 0
48 1
J39 3
5 0
7 0
49 1
J40 3
5 0
8 0
50 1
J41 3
5 0
9 0
51 1
J42 2
6 0
52 1
J43 3
6 0
7 0
53 1
J44 3
6 0
8 0
54 1
J45 3
6 0
9 0
55 1
J46 2
7 0
56 1
J47 3
7 0
8 0
57 1
J48 3
7 0
9 0
58 1
J49 2
8 0
59 1
J50 3
8 0
9 0
60 1
J51 2
9 0
61 1
J52 2
0 -1
10 1
J53 2
0 -1
11 1
J54 2
0 -1
12 1
J55 2
0 -1
13 1
J56 2
0 -1
14 1
J57 2
0 -1
15 1
J58 2
0 -1
16 1
J59 2
0 -1
17 1
J60 2
0 -1
18 1
J61 2
1 -1
19 1
J62 2
1 -1
20 1
J63 2
1 -1
21 1
J64 2
1 -1
22 1
J65 2
1 -1
23 1
J66 2
1 -1
24 1
J67 2
1 -1
25 1
J68 2
1 -1
26 1
J69 2
2 -1
27 1
J70 2
2 -1
28 1
J71 2
2 -1
29 1
J72 2
2 -1
30 1
J73 2
2 -1
31 1
J74 2
2 -1
32 1
J75 2
2 -1
33 1
J76 2
2 -1
34 1
J77 2
3 -1
35 1
J78 2
3 -1
36 1
J79 2
3 -1
37 1
J80 2
3 -1
38 1
J81 2
3 -1
39 1
J82 2
3 -1
40 1
J83 2
3 -1
41 1
J84 2
4 -1
42 1
J85 2
4 -1
43 1
J86 2
4 -1
44 1
J87 2
4 -1
45 1
J88 2
4 -1
46 1
J89 2
5 -1
47 1
J90 2
5 -1
48 1
J91 2
5 -1
49 1
J92 2
5 -1
50 1
J93 2
5 -1
51 1
J94 2
6 -1
52 1
J95 2
6 -1
53 1
J96 2
6 -1
54 1
J97 2
6 -1
55 1
J98 2
7 -1
56 1
J99 2
7 -1
57 1
J100 2
7 -1
58 1
J101 2
8 -1
59 1
J102 2
8 -1
60 1
J103 2
9 -1
61 1
J104 2
2 -1
11 1
J105 2
3 -1
12 1
J106 2
4 -1
13 1
J107 2
5 -1
14 1
J108 2
6 -1
15 1
J109 2
7 -1
16 1
J110 2
8 -1
17 1
J111 2
9 -1
18 1
J112 2
2 -1
20 1
J113 2
3 -1
21 1
J114 2
4 -1
22 1
J115 2
5 -1
23 1
J116 2
6 -1
24 1
J117 2
7 -1
25 1
J118 2
9 -1
26 1
J119 2
3 -1
28 1
J120 2
4 -1
29 1
J121 2
5 -1
30 1
J122 2
6 -1
31 1
J123 2
7 -1
32 1
J124 2
8 -1
33 1
J125 2
9 -1
34 1
J126 2
4 -1
36 1
J127 2
5 -1
37 1
J128 2
6 -1
38 1
J129 2
7 -1
39 1
J130 2
8 -1
40 1
J131 2
9 -1
41 1
J132 2
6 -1
43 1
J133 2
7 -1
44 1
J134 2
8 -1
45 1
J135 2
9 -1
46 1
J136 2
6 -1
48 1
J137 2
7 -1
49 1
J138 2
8 -1
50 1
J139 2
9 -1
51 1
J140 2
7 -1
53 1
J141 2
8 -1
54 1
J142 2
9 -1
55 1
J143 2
8 -1
57 1
J144 2
9 -1
58 1
J145 2
9 -1
60 1
J146 2
0 -2
10 1
J147 3
0 -1
2 -1
11 1
J148 3
0 -1
3 -1
12 1
J149 3
0 -1
4 -1
13 1
J150 3
0 -1
5 -1
14 1
J151 3
0 -1
6 -1
15 1
J152 3
0 -1
7 -1
16 1
J153 3
0 -1
8 -1
17 1
J154 3
0 -1
9 -1
18 1
J155 2
1 -2
19 1
J156 3
1 -1
2 -1
20 1
J157 3
1 -1
3 -1
21 1
J158 3
1 -1
4 -1
22 1
J159 3
1 -1
5 -1
23 1
J160 3
1 -1
6 -1
24 1
J161 3
1 -1
7 -1
25 1
J162 3
1 -1
9 -1
26 1
J163 2
2 -2
27 1
J164 3
2 -1
3 -1
28 1
J165 3
2 -1
4 -1
29 1
J166 3
2 -1
5 -1
30 1
J167 3
2 -1
6 -1
31 1
J168 3
2 -1
7 -1
32 1
J169 3
2 -1
8 -1
33 1
J170 3
2 -1
9 -1
34 1
J171 2
3 -2
35 1
J172 3
3 -1
4 -1
36 1
J173 3
3 -1
5 -1
37 1
J174 3
3 -1
6 -1
38 1
J175 3
3 -1
7 -1
39 1
J176 3
3 -1
8 -1
40 1
J177 3
3 -1
9 -1
41 1
J178 2
4 -2
42 1
J179 3
4 -1
6 -1
43 1
J180 3
4 -1
7 -1
44 1
J181 3
4 -1
8 -1
45 1
J182 3
4 -1
9 -1
46 1
J183 2
5 -2
47 1
J184 3
5 -1
6 -1
48 1
J185 3
5 -1
7 -1
49 1
J186 3
5 -1
8 -1
50 1
J187 3
5 -1
9 -1
51 1
J188 2
6 -2
52 1
J189 3
6 -1
7 -1
53 1
J190 3
6 -1
8 -1
54 1
J191 3
6 -1
9 -1
55 1
J192 2
7 -2
56 1
J193 3
7 -1
8 -1
57 1
J194 3
7 -1
9 -1
58 1
J195 2
8 -2
59 1
J196 3
8 -1
9 -1
60 1
J197 2
9 -2
61 1
J198 2
0 -1
10 1
J199 2
1 -1
19 1
J200 2
2 -1
27 1
J201 2
3 -1
35 1
J202 2
4 -1
42 1
J203 2
5 -1
47 1
J204 2
6 -1
52 1
J205 2
7 -1
56 1
J206 2
8 -1
59 1
J207 2
9 -1
61 1
G0 62
0 -0.87
1 -0.16
2 0.48
3 0.12
4 -0.09
5 -0.47
6 -0.94
7 -0.16
8 0.58
9 0.11
10 -1.781745
11 0.058724
12 0.220155
13 0.275375
14 -0.218678
15 0.080642
16 0.201733
17 0.027664
18 -0.076982
19 -0.821006
20 0.021885
21 0.103384
22 0.150585
23 -0.051128
24 0.044208
25 0.09621
26 -0.068571
27 -2.00741
28 -0.04548
29 -0.055185
30 0.0495
31 -0.01563
32 -0.04142
33 -0.052215
34 0.066759
35 -1.801967
36 -0.032441
37 0.015862
38 -0.032892
39 -0.01246
40 -0.200673
41 0.238877
42 -1.484674
43 -0.044759
44 -0.042081
45 -0.253772
46 0.30707
47 -1.466429
48 0.03566
49 0.026272
50 0.193962
51 -0.216944
52 -2.120381
53 -0.028395
54 -0.074175
55 0.090915
56 -1.423222
57 -0.183997
58 0.219709
59 -1.28102
60 0.103861
61 -1.091553
